feasible solution found by trivial heuristic after 0.0 seconds, objective value 0.000000e+00
presolving:
(round 1, fast)       10291 del vars, 5186 del conss, 0 add conss, 140 chg bounds, 1309 chg sides, 0 chg coeffs, 0 upgd conss, 0 impls, 1407 clqs
   (0.1s) running MILP presolver
   (0.1s) MILP presolver (2 rounds): 0 aggregations, 0 fixings, 0 bound changes
(round 2, medium)     10291 del vars, 8007 del conss, 1414 add conss, 140 chg bounds, 1309 chg sides, 0 chg coeffs, 0 upgd conss, 0 impls, 1407 clqs
(round 3, exhaustive) 10291 del vars, 8007 del conss, 1414 add conss, 140 chg bounds, 1309 chg sides, 0 chg coeffs, 1414 upgd conss, 0 impls, 1407 clqs
   (0.1s) probing: 51/9709 (0.5%) - 0 fixings, 0 aggregations, 0 implications, 0 bound changes
   (0.1s) probing aborted: 50/50 successive totally useless probings
   (0.2s) symmetry computation started: requiring (bin +, int -, cont +), (fixed: bin -, int +, cont -)
   (0.4s) symmetry computation finished: 529 generators found (max: 1500, log10 of symmetry group size: 198.5)
(round 4, exhaustive) 10291 del vars, 8007 del conss, 1767 add conss, 140 chg bounds, 1309 chg sides, 0 chg coeffs, 1414 upgd conss, 0 impls, 1407 clqs
presolving (5 rounds: 5 fast, 4 medium, 3 exhaustive):
 10291 deleted vars, 8007 deleted constraints, 1767 added constraints, 140 tightened bounds, 0 added holes, 1309 changed sides, 0 changed coefficients
 0 implications, 1407 cliques
presolved problem has 9709 variables (9709 bin, 0 int, 0 impl, 0 cont) and 1767 constraints
      7 constraints of type <knapsack>
   1407 constraints of type <setppc>
    353 constraints of type <orbitope>
transformed objective value is always integral (scale: 1)
Presolving Time: 0.49
transformed 1/2 original solutions to the transformed problem space

 time | node  | left  |LP iter|LP it/n|mem/heur|mdpt |vars |cons |rows |cuts |sepa|confs|strbr|  dualbound   | primalbound  |  gap   | compl. 
p 0.6s|     1 |     0 |     0 |     - |  clique|   0 |9709 |1767 |1414 |   0 |  0 |   0 |   0 | 1.732680e+05 | 1.765900e+04 | 881.19%| unknown
  1.3s|     1 |     0 |  3594 |     - |   214M |   0 |9709 |1767 |1414 |   0 |  0 |   0 |   0 | 2.279160e+04 | 1.765900e+04 |  29.07%| unknown
r 1.3s|     1 |     0 |  3594 |     - |rounding|   0 |9709 |1767 |1414 |   0 |  0 |   0 |   0 | 2.279160e+04 | 2.260800e+04 |   0.81%| unknown
r 1.3s|     1 |     0 |  3594 |     - |shifting|   0 |9709 |1767 |1414 |   0 |  0 |   0 |   0 | 2.279160e+04 | 2.265900e+04 |   0.59%| unknown
i 1.3s|     1 |     0 |  3594 |     - |  oneopt|   0 |9709 |1767 |1414 |   0 |  0 |   0 |   0 | 2.279160e+04 | 2.277400e+04 |   0.08%| unknown
  1.5s|     1 |     0 |  3618 |     - |   217M |   0 |9709 |1767 |1421 |   7 |  1 |   0 |   0 | 2.279160e+04 | 2.277400e+04 |   0.08%| unknown
  1.6s|     1 |     0 |  3650 |     - |   217M |   0 |9709 |1767 |1428 |  14 |  2 |   0 |   0 | 2.279160e+04 | 2.277400e+04 |   0.08%| unknown
  1.6s|     1 |     0 |  3679 |     - |   218M |   0 |9709 |1767 |1435 |  21 |  3 |   0 |   0 | 2.279160e+04 | 2.277400e+04 |   0.08%| unknown
  1.7s|     1 |     0 |  3692 |     - |   219M |   0 |9709 |1767 |1442 |  28 |  4 |   0 |   0 | 2.279160e+04 | 2.277400e+04 |   0.08%| unknown
  1.8s|     1 |     0 |  3751 |     - |   220M |   0 |9709 |1767 |1448 |  34 |  5 |   0 |   0 | 2.279160e+04 | 2.277400e+04 |   0.08%| unknown
  1.9s|     1 |     0 |  3853 |     - |   221M |   0 |9709 |1767 |1454 |  40 |  6 |   0 |   0 | 2.279160e+04 | 2.277400e+04 |   0.08%| unknown
  2.0s|     1 |     0 |  3920 |     - |   222M |   0 |9709 |1767 |1460 |  46 |  7 |   0 |   0 | 2.279160e+04 | 2.277400e+04 |   0.08%| unknown
  2.1s|     1 |     0 |  3975 |     - |   222M |   0 |9709 |1767 |1464 |  50 |  8 |   0 |   0 | 2.279160e+04 | 2.277400e+04 |   0.08%| unknown
  2.1s|     1 |     0 |  3996 |     - |   222M |   0 |9709 |1767 |1469 |  55 |  9 |   0 |   0 | 2.279160e+04 | 2.277400e+04 |   0.08%| unknown
  2.2s|     1 |     0 |  4043 |     - |   223M |   0 |9709 |1767 |1476 |  62 | 10 |   0 |   0 | 2.279160e+04 | 2.277400e+04 |   0.08%| unknown
 time | node  | left  |LP iter|LP it/n|mem/heur|mdpt |vars |cons |rows |cuts |sepa|confs|strbr|  dualbound   | primalbound  |  gap   | compl. 
  2.3s|     1 |     0 |  4104 |     - |   225M |   0 |9709 |1767 |1481 |  67 | 11 |   0 |   0 | 2.279160e+04 | 2.277400e+04 |   0.08%| unknown
L 3.9s|     1 |     0 |  7173 |     - |    rens|   0 |9709 |1767 |1481 |  67 | 11 |   0 |   0 | 2.279160e+04 | 2.278600e+04 |   0.02%| unknown
  4.0s|     1 |     0 |  7173 |     - |   228M |   0 |9709 |1767 |1481 |  67 | 11 |   0 |   0 | 2.279160e+04 | 2.278600e+04 |   0.02%| unknown
i 4.0s|     1 |     0 |  7173 |     - |  oneopt|   0 |9709 |1767 |1302 |  67 | 11 |   0 |   0 | 2.279160e+04 | 2.278900e+04 |   0.01%| unknown
  4.0s|     1 |     0 |  7183 |     - |   228M |   0 |9709 |1767 |1302 |  67 | 11 |   0 |   0 | 2.279160e+04 | 2.278900e+04 |   0.01%| unknown
  4.0s|     1 |     0 |  7183 |     - |   228M |   0 |9709 |1767 |1182 |  67 | 11 |   0 |   0 | 2.279160e+04 | 2.278900e+04 |   0.01%| unknown
  4.2s|     1 |     0 |  7419 |     - |   229M |   0 |9709 |1468 |1189 |  75 | 12 |   0 |   0 | 2.279160e+04 | 2.278900e+04 |   0.01%| unknown
  4.2s|     1 |     0 |  7451 |     - |   229M |   0 |9709 |1468 |1190 |  76 | 13 |   0 |   0 | 2.279160e+04 | 2.278900e+04 |   0.01%| unknown
(run 1, node 1) restarting after 2035 global fixings of integer variables

(restart) converted 21 cuts from the global cut pool into linear constraints

presolving:
(round 1, fast)       2035 del vars, 0 del conss, 0 add conss, 0 chg bounds, 0 chg sides, 0 chg coeffs, 0 upgd conss, 0 impls, 1108 clqs
(round 2, medium)     2035 del vars, 77 del conss, 0 add conss, 0 chg bounds, 0 chg sides, 0 chg coeffs, 0 upgd conss, 0 impls, 1108 clqs
(round 3, exhaustive) 2035 del vars, 77 del conss, 0 add conss, 0 chg bounds, 0 chg sides, 0 chg coeffs, 21 upgd conss, 0 impls, 1108 clqs
presolving (4 rounds: 4 fast, 3 medium, 2 exhaustive):
 2035 deleted vars, 77 deleted constraints, 0 added constraints, 0 tightened bounds, 0 added holes, 0 changed sides, 0 changed coefficients
 0 implications, 1108 cliques
presolved problem has 7674 variables (7674 bin, 0 int, 0 impl, 0 cont) and 1412 constraints
     28 constraints of type <knapsack>
   1108 constraints of type <setppc>
    276 constraints of type <orbitope>
transformed objective value is always integral (scale: 1)
Presolving Time: 0.55
transformed 11/13 original solutions to the transformed problem space

 time | node  | left  |LP iter|LP it/n|mem/heur|mdpt |vars |cons |rows |cuts |sepa|confs|strbr|  dualbound   | primalbound  |  gap   | compl. 
  4.5s|     1 |     0 | 11033 |     - |   238M |   0 |7674 |1412 |1136 |   0 |  0 |   0 |   0 | 2.279160e+04 | 2.278900e+04 |   0.01%| unknown
  4.7s|     1 |     0 | 11045 |     - |   239M |   0 |7674 |1412 |1142 |   6 |  1 |   0 |   0 | 2.279160e+04 | 2.278900e+04 |   0.01%| unknown
  4.7s|     1 |     0 | 11140 |     - |   239M |   0 |7674 |1412 |1149 |  13 |  2 |   0 |   0 | 2.279160e+04 | 2.278900e+04 |   0.01%| unknown
  4.8s|     1 |     0 | 11197 |     - |   239M |   0 |7674 |1412 |1156 |  20 |  3 |   0 |   0 | 2.279160e+04 | 2.278900e+04 |   0.01%| unknown
  4.9s|     1 |     0 | 11241 |     - |   240M |   0 |7674 |1412 |1162 |  26 |  4 |   0 |   0 | 2.279160e+04 | 2.278900e+04 |   0.01%| unknown
  5.0s|     1 |     0 | 11328 |     - |   240M |   0 |7674 |1412 |1169 |  33 |  5 |   0 |   0 | 2.279160e+04 | 2.278900e+04 |   0.01%| unknown
  5.0s|     1 |     0 | 11363 |     - |   241M |   0 |7674 |1412 |1176 |  40 |  6 |   0 |   0 | 2.279160e+04 | 2.278900e+04 |   0.01%| unknown
  5.1s|     1 |     0 | 11409 |     - |   241M |   0 |7674 |1412 |1181 |  45 |  7 |   0 |   0 | 2.279160e+04 | 2.278900e+04 |   0.01%| unknown
  5.2s|     1 |     0 | 11436 |     - |   242M |   0 |7674 |1412 |1187 |  51 |  8 |   0 |   0 | 2.279160e+04 | 2.278900e+04 |   0.01%| unknown
  5.3s|     1 |     0 | 11445 |     - |   242M |   0 |7674 |1412 |1192 |  56 |  9 |   0 |   0 | 2.279160e+04 | 2.278900e+04 |   0.01%| unknown
  5.3s|     1 |     0 | 11462 |     - |   243M |   0 |7674 |1412 |1175 |  60 | 10 |   0 |   0 | 2.279160e+04 | 2.278900e+04 |   0.01%| unknown
  5.4s|     1 |     0 | 11472 |     - |   244M |   0 |7674 |1412 |1177 |  62 | 11 |   0 |   0 | 2.279160e+04 | 2.278900e+04 |   0.01%| unknown
  8.7s|     1 |     2 | 13223 |     - |   245M |   0 |7674 |1412 |1177 |  62 | 11 |   0 |  38 | 2.279160e+04 | 2.278900e+04 |   0.01%| unknown
 12.3s|   100 |   101 | 18779 | 103.8 |   274M |  49 |7674 |1416 |1165 | 150 |  1 |   4 |  38 | 2.279160e+04 | 2.278900e+04 |   0.01%| unknown
 13.5s|   200 |   197 | 20030 |  58.1 |   277M |  82 |7674 |1418 |1162 | 171 |  1 |   6 |  38 | 2.279160e+04 | 2.278900e+04 |   0.01%| unknown
 time | node  | left  |LP iter|LP it/n|mem/heur|mdpt |vars |cons |rows |cuts |sepa|confs|strbr|  dualbound   | primalbound  |  gap   | compl. 
 17.4s|   300 |   295 | 20739 |  41.1 |   277M |  93 |7674 |1418 |1167 | 186 |  1 |   6 |  38 | 2.279160e+04 | 2.278900e+04 |   0.01%| unknown
 18.8s|   400 |   391 | 31493 |  57.7 |   278M | 174 |7674 |1418 |1174 | 196 |  1 |   6 |  38 | 2.279160e+04 | 2.278900e+04 |   0.01%| unknown
 19.4s|   500 |   475 | 31885 |  47.0 |   278M | 266 |7674 |1418 |1174 | 196 |  1 |   6 |  38 | 2.279160e+04 | 2.278900e+04 |   0.01%| unknown
 20.3s|   600 |   563 | 32456 |  40.1 |   279M | 360 |7674 |1418 |1174 | 196 |  1 |   6 |  38 | 2.279160e+04 | 2.278900e+04 |   0.01%| unknown
 21.2s|   700 |   663 | 33098 |  35.3 |   279M | 460 |7674 |1418 |1174 | 196 |  1 |   6 |  38 | 2.279160e+04 | 2.278900e+04 |   0.01%| unknown
 22.3s|   800 |   761 | 34784 |  33.0 |   279M | 469 |7674 |1418 |1174 | 196 |  1 |   6 |  38 | 2.279160e+04 | 2.278900e+04 |   0.01%| unknown
 23.4s|   900 |   851 | 35563 |  30.2 |   279M | 507 |7674 |1418 |1174 | 196 |  1 |   6 |  38 | 2.279160e+04 | 2.278900e+04 |   0.01%| unknown
r24.3s|   971 |     0 | 36274 |  28.7 |rounding| 578 |7674 |1418 |1174 | 196 |  0 |   6 |  38 | 2.279160e+04 | 2.279100e+04 |   0.00%|  99.93%

SCIP Status        : problem is solved [optimal solution found]
Solving Time (sec) : 24.33
Solving Nodes      : 971 (total of 972 nodes in 2 runs)
Primal Bound       : +2.27910000000000e+04 (523 solutions)
Dual Bound         : +2.27910000000000e+04
Gap                : 0.00 %
Solve Status: optimal
Solve Time: 24.34 seconds
